20
587 233 220
82 80 71
66 37 27
77 76 31
100 56 38
93 86 67
89 76 30
98 90 67
87 52 42
53 42 35
116 53 36
85 79 46
106 91 24
112 84 46
89 56 47
62 51 39
69 67 50
93 74 46
74 48 35
95 87 66
84 54 30
thpack7_43